SAT
-84 -85 -53 -60 -36 -70 91 64 -83 86 -76 9 -17 -5 -78 20 -51 43 96 -87 -12 11 57 67 -74 -59 44 -7 -77 -52 -50 -65 -39 62 -37 -79 -27 14 -26 72 3 -69 -2 -40 4 46 -10 81 -32 -21 80 -45 -88 30 93 23 95 -38 19 47 18 1 68 -73 56 48 -100 75 -55 -63 -35 24 -89 -29 41 61 58 92 -98 -16 13 90 -25 49 6 -31 42 15 54 82 8 94 66 -22 28 -34 -99 97 -71 -33 0
